N = 50;
MinK = 6;
Capacity = 200;

Scale = 10;
DistanceRoundingMode = Floor;
X = array1d(0..N, [40, 25, 22, 22, 20, 20, 18, 15, 15, 10, 10, 8, 8, 5, 5, 2, 0, 0, 44, 42, 42, 40, 40, 38, 38, 35, 95, 95, 92, 90, 88, 88, 87, 85, 85, 67, 65, 65, 62, 60, 60, 58, 55, 55, 55, 20, 18, 2, 42, 42, 72]);
Y = array1d(0..N, [50, 85, 75, 85, 80, 85, 75, 75, 80, 35, 40, 40, 45, 35, 45, 40, 40, 45, 5, 10, 15, 5, 15, 5, 15, 5, 30, 35, 30, 35, 30, 35, 30, 25, 35, 85, 85, 82, 80, 80, 85, 75, 80, 85, 82, 82, 80, 45, 5, 12, 35]);

Demands = array1d(1..N, [20, 30, 10, 40, 20, 20, 20, 10, 20, 30, 40, 20, 10, 10, 20, 20, 20, 20, 40, 10, 10, 40, 30, 10, 20, 30, 20, 10, 10, 10, 20, 10, 10, 30, 20, 40, 10, 30, 10, 30, 20, 10, 20, 10, 10, 10, 10, 10, 10, 30]);

ServiceTimes = array1d(1..N, [10, 10, 10, 10, 10, 10, 10, 10, 10, 10, 10, 10, 10, 10, 10, 10, 10, 10, 10, 10, 10, 10, 10, 10, 10, 10, 10, 10, 10, 10, 10, 10, 10, 10, 10, 10, 10, 10, 10, 10, 10, 10, 10, 10, 10, 10, 10, 10, 10, 10]);

TimeWindows = array2d(1..2, 0..N, [|
    0,   0,   0,   0, 141,   0,  95,   0,  91,  91, 119, 59,   0, 142,   0, 58,   0, 149,   0,   0,   0,   0,  92, 65,   0, 154,   0, 62,   0,   0,  74,   0,   0, 51,   0, 139, 43,   0,  75, 37,  85,  92, 33,   0, 64, 37,   0,   0,   0, 104,   0 |
  240, 191, 199, 190, 171, 189, 125, 194, 121, 121, 149, 89, 197, 172, 194, 88, 188, 179, 184, 189, 194, 185, 122, 95, 194, 184, 171, 92, 174, 177, 104, 179, 178, 81, 182, 169, 73, 189, 105, 67, 115, 122, 63, 191, 94, 67, 192, 191, 184, 134, 194
|]);
